Version identifier: 22.1.0.0 | 2022-03-09 | 1a383f8ce
CPXPARAM_Read_DataCheck                          1
CPXPARAM_TimeLimit                               600
Tried aggregator 4 times.
MIP Presolve eliminated 100016 rows and 9178 columns.
MIP Presolve modified 1159 coefficients.
Aggregator did 93047 substitutions.
Reduced MIP has 9762 rows, 94767 columns, and 199510 nonzeros.
Reduced MIP has 94729 binaries, 38 generals, 0 SOSs, and 0 indicators.
Presolve time = 1.27 sec. (1297.11 ticks)
Tried aggregator 1 time.
Detecting symmetries...
Reduced MIP has 9762 rows, 94767 columns, and 199510 nonzeros.
Reduced MIP has 94729 binaries, 38 generals, 0 SOSs, and 0 indicators.
Presolve time = 0.21 sec. (148.25 ticks)
Probing fixed 60 vars, tightened 0 bounds.
Probing time = 0.51 sec. (47.06 ticks)
Clique table members: 191738.
MIP emphasis: balance optimality and feasibility.
MIP search method: dynamic search.
Parallel mode: deterministic, using up to 8 threads.
Root relaxation solution time = 1.79 sec. (836.81 ticks)

        Nodes                                         Cuts/
   Node  Left     Objective  IInf  Best Integer    Best Bound    ItCnt     Gap

      0     0       38.4072  7418                     38.4072     8803         
      0     0       63.0000   848                    Cuts: 44    22845         
      0     0       63.0000   814                    Cuts: 58    34275         
      0     0       63.0000   851                ZeroHalf: 46    43587         
      0     0       63.0000   773                ZeroHalf: 34    53420         
      0     0       63.0000  1050                ZeroHalf: 32    68198         
Heuristic still looking.
Heuristic still looking.
      0     2       63.0000  1050                     63.0000    68198         
Elapsed time = 359.89 sec. (192032.10 ticks, tree = 0.02 MB, solutions = 0)
      1     3       63.0000   711                     63.0000    79620         
      2     4       63.0000   541                     63.0000    90337         
      3     3       63.0000   747                     63.0000    79204         
      4     6       63.0000   740                     63.0000   111017         
      5     5       63.0000   482                     63.0000   100228         
      6     4       63.0000   627                     63.0000    84811         
      8     7       63.0001   716                     63.0000   120997         
      9    11       63.0000   641                     63.0000   181393         
     11     9       63.0000   710                     63.0000   134577         
     16     8       63.0000   675                     63.0000   139763         
Elapsed time = 517.26 sec. (232876.32 ticks, tree = 0.04 MB, solutions = 0)
     17     7       63.0000   672                     63.0000   115433         
     18     8       63.0000   466                     63.0000   130745         
     19    14       63.0000   745                     63.0000   200390         

Zero-half cuts applied:  114
Lift and project cuts applied:  4
Gomory fractional cuts applied:  27

Root node processing (before b&c):
  Real time             =  359.48 sec. (191874.85 ticks)
Parallel b&c, 8 threads:
  Real time             =  240.60 sec. (53164.34 ticks)
  Sync time (average)   =   71.18 sec.
  Wait time (average)   =    0.00 sec.
                          ------------
Total (root+branch&cut) =  600.09 sec. (245039.19 ticks)
